NAME          SPRAY
ROWS
 G  WATR
 G  DEN
 E  WT
 N  COST
 N  PRICE
COLUMNS
*234567890123456789012345678901234567890123456789012345678901
    WATER     WATR          1.000000   DEN           0.119750   
    WATER     WT            1.000000   COST          0.010000   
    WATER     PRICE         0.000000   SCALE      2000.000000   
    LASSO     DEN           0.100000   WT            1.000000   
    LASSO     COST          5.625000   PRICE         6.250000   
    LASSO     SCALE         2.500000   
    SQUADRON  DEN           0.107296   WT            1.000000   
    SQUADRON  COST          5.000000   PRICE         6.250000   
    SQUADRON  SCALE         1.165000   
    PRODUCT   WT           -1.000000   COST          0.000000   
    PRODUCT   PRICE         0.000000   SCALE         1.000000   
*234567890123456789012345678901234567890123456789012345678901
RHS
RANGES
ENDATA
